12 16 6 10
11 19 3 15 17 4 16 9 3 19 1 9 2 15 13 18 
5 0.8 4.31 0.61 0.63 5.13 7.82 4.47 2.32 3.47 1.58 2.28 5.8 7.44 2.84 5.53 
5.66 7.48 3.98 0.43 7.89 1.24 7.94 3.04 7.39 2.97 0.95 5.74 0.97 2.48 6.91 5.8 
7.67 7.72 0.65 7.76 5.95 3.94 3.39 3.32 0.63 6.66 1.65 0.63 1.73 5.21 6.26 4.91 
6.21 4.15 3.93 2.57 6.92 1.75 7.87 4.73 0.23 4.91 5.31 5 6.1 4.28 3.51 4.44 
1.77 0.91 5.7 4.33 7.74 6.76 4.03 2.86 6.26 3.74 2.36 1.35 7.55 5.07 6.06 1.82 
3.29 7.6 1.08 0.36 2.41 6.59 3.67 1.14 2.86 1.83 0.26 4.88 5.39 4.59 4.34 3.57 
4 4 4 4 4 4 4 4 4 4 4 4 4 4 4 4 
1.55 5.16 7.89 7.25 1.15 0.95 1.4 0.32 2.59 4.57 1.3 3.47 0.49 4.11 3.72 5.85 
4.81 5.77 3.49 2.92 7.19 3.1 4.41 2.14 1.17 4.15 3.06 7.86 0.38 4.02 0.5 2.17 
3.03 1.67 0.46 0.66 5.44 2.32 6.68 5.8 6.07 0.57 7.88 0.88 4.44 4.26 5.86 0.6 
5.87 7.34 5.73 1.18 5.55 7.51 5.76 6.38 0.69 2.24 7.28 0.34 6.35 5.32 7.46 3.08 
5.67 0.99 5.26 7 0.93 0.69 1.18 1.83 7.72 2.64 6.23 0.41 3.59 5.94 1.12 4.32 
1 1 1 1 1 1 1 1 1 1 1 1 1 1 1 1 
1 1 1 1 1 1 1 1 1 1 1 1 1 1 1 1 
1 1 1 1 1 1 1 1 1 1 1 1 1 1 1 1 
1 1 1 1 1 1 1 1 1 1 1 1 1 1 1 1 
1 1 1 1 1 1 1 1 1 1 1 1 1 1 1 1 
1 1 1 1 1 1 1 1 1 1 1 1 1 1 1 1 
1 1 1 1 1 1 1 1 1 1 1 1 1 1 1 1 
1 1 1 1 1 1 1 1 1 1 1 1 1 1 1 1 
1 1 1 1 1 1 1 1 1 1 1 1 1 1 1 1 
1 1 1 1 1 1 1 1 1 1 1 1 1 1 1 1 
1 1 1 1 1 1 1 1 1 1 1 1 1 1 1 1 
1 1 1 1 1 1 1 1 1 1 1 1 1 1 1 1 
0.01 0.01 0.01 0.01 0.01 0.01 0.01 0.01 0.01 0.01 0.01 0.01 0.01 0.01 0.01 0.01 
0.02 0.02 0.02 0.02 0.02 0.02 0.02 0.02 0.02 0.02 0.02 0.02 0.02 0.02 0.02 0.02 
0.03 0.03 0.03 0.03 0.03 0.03 0.03 0.03 0.03 0.03 0.03 0.03 0.03 0.03 0.03 0.03 
0.04 0.04 0.04 0.04 0.04 0.04 0.04 0.04 0.04 0.04 0.04 0.04 0.04 0.04 0.04 0.04 
0.05 0.05 0.05 0.05 0.05 0.05 0.05 0.05 0.05 0.05 0.05 0.05 0.05 0.05 0.05 0.05 
0.06 0.06 0.06 0.06 0.06 0.06 0.06 0.06 0.06 0.06 0.06 0.06 0.06 0.06 0.06 0.06 
0.07 0.07 0.07 0.07 0.07 0.07 0.07 0.07 0.07 0.07 0.07 0.07 0.07 0.07 0.07 0.07 
0.2 0.2 0.2 0.2 0.2 0.2 0.2 0.2 0.2 0.2 0.2 0.2 0.2 0.2 0.2 0.2 
0.4 0.4 0.4 0.4 0.4 0.4 0.4 0.4 0.4 0.4 0.4 0.4 0.4 0.4 0.4 0.4 
0.6 0.6 0.6 0.6 0.6 0.6 0.6 0.6 0.6 0.6 0.6 0.6 0.6 0.6 0.6 0.6 
0.8 0.8 0.8 0.8 0.8 0.8 0.8 0.8 0.8 0.8 0.8 0.8 0.8 0.8 0.8 0.8 
1 1 1 1 1 1 1 1 1 1 1 1 1 1 1 1 
